50
10107

709 431
626 987
716 571
620 152
540 250
922 555
777 657
105 949
19 985
703 191
513 938
966 231
452 787
985 372
448 982
640 554
698 680
425 414
638 388
273 962
806 889
981 404
178 888
30 195
573 119
887 945
849 645
985 536
929 580
292 218
355 673
268 21
627 667
946 224
364 62
76 413
231 88
626 994
623 707
711 859
678 340
230 84
968 365
633 54
171 254
385 731
212 224
364 120
588 316
454 832
